(set-logic QF_S)
(declare-fun var0 () String)
(assert (RegexIn var0 (RegexConcat (RegexPlus (RegexStar (Str2Reg "000"))) (RegexConcat (RegexStar (RegexStar (Str2Reg "1"))) (RegexConcat (RegexUnion (RegexPlus (Str2Reg "22")) (RegexPlus (Str2Reg "333"))) (RegexConcat (RegexPlus (RegexPlus (Str2Reg "44"))) (RegexConcat (RegexPlus (RegexPlus (Str2Reg "555"))) (RegexConcat (RegexStar (RegexUnion (Str2Reg "66") (Str2Reg "7"))) (RegexConcat (RegexStar (RegexUnion (Str2Reg "88") (Str2Reg "999"))) (RegexConcat (RegexStar (RegexUnion (Str2Reg "a") (Str2Reg "b"))) (RegexConcat (RegexPlus (RegexUnion (Str2Reg "cc") (Str2Reg "d"))) (RegexConcat (RegexPlus (RegexUnion (Str2Reg "e") (Str2Reg "f"))) (RegexConcat (RegexUnion (RegexStar (Str2Reg "ggg")) (RegexStar (Str2Reg "hh"))) (RegexConcat (RegexPlus (RegexUnion (Str2Reg "i") (Str2Reg "j"))) (RegexConcat (RegexUnion (RegexStar (Str2Reg "kk")) (RegexStar (Str2Reg "ll"))) (RegexConcat (RegexPlus (RegexPlus (Str2Reg "mm"))) (RegexConcat (RegexPlus (RegexPlus (Str2Reg "nn"))) (RegexConcat (RegexPlus (RegexPlus (Str2Reg "o"))) (RegexConcat (RegexUnion (RegexPlus (Str2Reg "p")) (RegexPlus (Str2Reg "qq"))) (RegexConcat (RegexUnion (RegexUnion (Str2Reg "r") (Str2Reg "ss")) (RegexUnion (Str2Reg "t") (Str2Reg "uuu"))) (RegexConcat (RegexUnion (RegexUnion (Str2Reg "vv") (Str2Reg "ww")) (RegexUnion (Str2Reg "xxx") (Str2Reg "yy"))) (RegexConcat (RegexUnion (RegexPlus (Str2Reg "z")) (RegexPlus (Str2Reg "AA"))) (RegexConcat (RegexUnion (RegexUnion (Str2Reg "BB") (Str2Reg "CC")) (RegexUnion (Str2Reg "DD") (Str2Reg "E"))) (RegexConcat (RegexPlus (RegexUnion (Str2Reg "F") (Str2Reg "G"))) (RegexConcat (RegexStar (RegexPlus (Str2Reg "HH"))) (RegexConcat (RegexUnion (RegexStar (Str2Reg "I")) (RegexStar (Str2Reg "JJJ"))) (RegexConcat (RegexUnion (RegexPlus (Str2Reg "KKK")) (RegexPlus (Str2Reg "LL"))) (RegexConcat (RegexPlus (RegexPlus (Str2Reg "MMM"))) (RegexConcat (RegexPlus (RegexUnion (Str2Reg "NN") (Str2Reg "OO"))) (RegexConcat (RegexPlus (RegexPlus (Str2Reg "P"))) (RegexConcat (RegexPlus (RegexUnion (Str2Reg "QQ") (Str2Reg "RRR"))) (RegexConcat (RegexUnion (RegexPlus (Str2Reg "SS")) (RegexPlus (Str2Reg "TTT"))) (RegexConcat (RegexPlus (RegexUnion (Str2Reg "UUU") (Str2Reg "VVV"))) (RegexConcat (RegexStar (RegexUnion (Str2Reg "WWW") (Str2Reg "X"))) (RegexConcat (RegexStar (RegexUnion (Str2Reg "YYY") (Str2Reg "ZZZ"))) (RegexConcat (RegexStar (RegexPlus (Str2Reg "!!"))) (RegexConcat (RegexStar (RegexStar (Str2Reg "\""))) (RegexConcat (RegexUnion (RegexPlus (Str2Reg "##")) (RegexPlus (Str2Reg "$$"))) (RegexConcat (RegexPlus (RegexPlus (Str2Reg "%"))) (RegexConcat (RegexPlus (RegexUnion (Str2Reg "&") (Str2Reg "'''"))) (RegexConcat (RegexUnion (RegexPlus (Str2Reg "(((")) (RegexPlus (Str2Reg ")))"))) (RegexConcat (RegexPlus (RegexStar (Str2Reg "*"))) (RegexConcat (RegexStar (RegexUnion (Str2Reg "++") (Str2Reg ",,,"))) (RegexConcat (RegexUnion (RegexPlus (Str2Reg "--")) (RegexPlus (Str2Reg "."))) (RegexConcat (RegexUnion (RegexPlus (Str2Reg "///")) (RegexPlus (Str2Reg ":::"))) (RegexConcat (RegexUnion (RegexPlus (Str2Reg ";;")) (RegexPlus (Str2Reg "<<"))) (RegexConcat (RegexPlus (RegexPlus (Str2Reg "=="))) (RegexConcat (RegexStar (RegexPlus (Str2Reg ">"))) (RegexConcat (RegexUnion (RegexPlus (Str2Reg "?")) (RegexPlus (Str2Reg "@@"))) (RegexConcat (RegexUnion (RegexPlus (Str2Reg "[[")) (RegexPlus (Str2Reg "\\\\\\"))) (RegexConcat (RegexStar (RegexPlus (Str2Reg "]]]"))) (RegexConcat (RegexPlus (RegexUnion (Str2Reg "^") (Str2Reg "___"))) (RegexConcat (RegexPlus (RegexStar (Str2Reg "``"))) (RegexConcat (RegexStar (RegexStar (Str2Reg "{"))) (RegexUnion (RegexPlus (Str2Reg "|||")) (RegexPlus (Str2Reg "}}}")))))))))))))))))))))))))))))))))))))))))))))))))))))))))
(check-sat)